Optimal - objective value 1283.00000000
      1 y_0_3                    1                     678
      7 y_2_4                    1                     326
      9 y_3_4                    1                     279
     13 f_0_0_3_0                1                       0
     22 f_0_3_4_1                1         -49.6666666666667
     26 f_0_4_2_2                1                       0
     29 f_1_0_3_0                1                       0
     38 f_1_3_4_1                1                       0
     45 f_2_0_3_0                3                       0
     54 f_2_3_4_1                3                       0
     58 f_2_4_2_2                3                       0
